120
1000
200
200
200
200
200
200
200
199
199
199
198
198
197
196
196
196
195
195
195
195
194
194
193
193
192
192
192
191
191
190
190
190
189
189
189
189
189
188
188
188
188
188
187
187
186
184
183
183
183
183
183
183
183
181
181
180
180
179
179
179
179
179
178
178
177
176
175
175
175
175
175
174
174
173
173
172
172
171
171
171
171
168
168
167
166
165
165
164
163
163
163
162
162
162
162
161
161
161
161
160
160
160
159
158
158
158
158
158
158
158
157
156
155
154
154
153
153
151
150
150
